p cnf 10 60
-6 -3 4 0
-8 2 10 0
-10 -10 -6 0
-8 -6 2 0
-3 6 7 0
-5 -5 6 0
-7 -1 3 0
1 2 4 0
2 3 6 0
-4 9 10 0
-4 -1 7 0
-4 4 8 0
-10 -2 4 0
-8 3 9 0
4 5 7 0
-2 3 6 0
-4 -3 2 0
3 4 9 0
-9 2 8 0
-5 -4 -1 0
-10 -1 4 0
-6 1 5 0
-10 3 6 0
-9 -3 4 0
-4 3 5 0
-6 -1 8 0
-10 -7 -6 0
-8 -6 8 0
-6 1 9 0
5 8 10 0
2 6 10 0
2 8 9 0
-2 1 9 0
-9 -6 -3 0
-8 -5 10 0
-4 -1 6 0
-8 -7 5 0
-5 4 9 0
-4 5 7 0
-1 -1 2 0
-7 -3 -1 0
-2 3 5 0
-9 -4 10 0
-6 -4 -4 0
-10 6 7 0
-8 5 10 0
-5 3 9 0
-8 2 3 0
-1 6 7 0
-10 -9 -3 0
5 7 8 0
-8 2 4 0
-9 1 4 0
-7 3 9 0
-4 -4 3 0
-10 -9 -1 0
-7 -1 9 0
-8 -7 6 0
-9 -8 -4 0
-4 5 8 0
